50
    39    72    93    82    64    82    93    64    15    62    20    29    44    65    34    97    42     7    85     8    43    74    15    17    20    15    53    92    87    44    24    18    99    41    38    97    52    54    99    45    81    94     1    95    63    39    29    94    16    31
     8    10     4     4     1     2     9     3     8    10     5    10     3     1     9     5     1     4     2     1     1     8     6     9     2    10     8     2     8     9     4    10     1     1     3     5    10     3     7     5     4     2     1     4     2     5     8     9     9     7
  1666  2095  1110  1202  2095  1108  1903  1411  1606  1432  1135  2002  1113  1451  1675  1171  1788  1528  2077  1342  1901  1974  1133  1538  1646  1553  1913  2013  2111  1834  1401  1955  1581  1443  1986  1979  1961  1482  1106  1835  1892  1902  1671  1835  2102  1603  1706  1623  1716  1200
